\* NFL *\
Maximize
OBJ: 39.2739165154 29436611 + 173.112744934 29436612 + 179.534533321 29436613
 + 19.530668341 29436614 + 182.923114237 29436615 + 23.9932973748 29436616
 + 150.209696831 29436617 + 150.968161949 29436618 + 177.709257708 29436619
 + 1.08482281368 29436624 + 17.1375059785 29436625 + 5.28187757007 29436626
 + 16.8367165859 29436627 + 19.0518338779 29436628 + 5.91831543668 29436629
 + 14.2857180916 29436630 + 18.0221578839 29436631 + 8.29942728978 29436632
 - 1.10333183128 29436633 - 0.76864407084 29436634 + 6.6236744839 29436635
 + 7.72819127651 29436637 + 3.63703037596 29436638 + 2.91427094243 29436640
 + 4.52345626454 29436641 + 8.07263630227 29436644 + 0.736439690981 29436645
 + 0.837821969573 29436654 + 4.60323970629 29436655 + 2.53125598112 29436659
 + 103.460209857 29436660 + 136.843538544 29436661 + 20.118622007 29436662
 + 118.971753799 29436663 + 15.8426263533 29436664 + 111.957993028 29436665
 + 105.022934498 29436666 + 126.17427743 29436667 - 3.79241068622 29436672
 + 6.63661200255 29436673 + 2.35067802299 29436674 + 11.2115454136 29436675
 + 9.02627149629 29436676 + 9.68211218678 29436677 + 13.4260572752 29436678
 + 8.99176539336 29436679 + 10.2261628667 29436680 + 4.16929958067 29436681
 + 0.427231946588 29436682 + 4.41939669673 29436683 + 2.90140794047 29436685
 + 7.22563008897 29436686 + 1.93699996768 29436688 + 5.58145617318 29436689
 + 2.35909090336 29436692 + 0.130535096765 29436693 + 0.61998723505 29436702
 + 2.39970341205 29436703
Subject To
CPT_==_1: 29436611 + 29436612 + 29436613 + 29436614 + 29436615 + 29436616
 + 29436617 + 29436618 + 29436619 + 29436620 + 29436621 + 29436622 + 29436623
 + 29436624 + 29436625 + 29436626 + 29436627 + 29436628 + 29436629 + 29436630
 + 29436631 + 29436632 + 29436633 + 29436634 + 29436635 + 29436636 + 29436637
 + 29436638 + 29436639 + 29436640 + 29436641 + 29436642 + 29436643 + 29436644
 + 29436645 + 29436646 + 29436647 + 29436648 + 29436649 + 29436650 + 29436651
 + 29436652 + 29436653 + 29436654 + 29436655 + 29436656 + 29436657 + 29436658
 = 1
FLEX_==_5: 29436659 + 29436660 + 29436661 + 29436662 + 29436663 + 29436664
 + 29436665 + 29436666 + 29436667 + 29436668 + 29436669 + 29436670 + 29436671
 + 29436672 + 29436673 + 29436674 + 29436675 + 29436676 + 29436677 + 29436678
 + 29436679 + 29436680 + 29436681 + 29436682 + 29436683 + 29436684 + 29436685
 + 29436686 + 29436687 + 29436688 + 29436689 + 29436690 + 29436691 + 29436692
 + 29436693 + 29436694 + 29436695 + 29436696 + 29436697 + 29436698 + 29436699
 + 29436700 + 29436701 + 29436702 + 29436703 + 29436704 + 29436705 + 29436706
 = 5
Global_team_limit_BUF_5: 29436611 + 29436612 + 29436616 + 29436618 + 29436622
 + 29436623 + 29436624 + 29436625 + 29436627 + 29436628 + 29436630 + 29436634
 + 29436637 + 29436641 + 29436642 + 29436644 + 29436647 + 29436649 + 29436650
 + 29436653 + 29436654 + 29436655 + 29436656 + 29436657 + 29436658 + 29436659
 + 29436660 + 29436664 + 29436666 + 29436670 + 29436671 + 29436672 + 29436673
 + 29436675 + 29436676 + 29436678 + 29436682 + 29436685 + 29436689 + 29436690
 + 29436692 + 29436695 + 29436697 + 29436698 + 29436701 + 29436702 + 29436703
 + 29436704 + 29436705 + 29436706 <= 5
Global_team_limit_NYJ_5: 29436613 + 29436614 + 29436615 + 29436617 + 29436619
 + 29436620 + 29436621 + 29436626 + 29436629 + 29436631 + 29436632 + 29436633
 + 29436635 + 29436636 + 29436638 + 29436639 + 29436640 + 29436643 + 29436645
 + 29436646 + 29436648 + 29436651 + 29436652 + 29436661 + 29436662 + 29436663
 + 29436665 + 29436667 + 29436668 + 29436669 + 29436674 + 29436677 + 29436679
 + 29436680 + 29436681 + 29436683 + 29436684 + 29436686 + 29436687 + 29436688
 + 29436691 + 29436693 + 29436694 + 29436696 + 29436699 + 29436700 <= 5
Limit_rule__('dalvin_cook',_'FLEX',_'NYJ'),_('dalvin_cook',_'CPT',_'NYJ'),_('breece_hall',_'FLEX',_'NYJ'),_('breece_hall',_'CPT',_'NYJ'),_('michael_carter',_'FLEX',_'NYJ'),_('michael_carter',_'CPT',_'NYJ'),_('israel_abanikanda',_'FLEX',_'NYJ'),_('israel_abanikanda',_'CPT',_'NYJ'),_('xazavian_valladay',_'FLEX',_'NYJ'),_('xazavian_valladay',_'CPT',_'NYJ'),_('nick_bawden',_'FLEX',_'NYJ'),_('nick_bawden',_'CPT',_'NYJ')__1:
 29436615 + 29436617 + 29436635 + 29436636 + 29436639 + 29436652 + 29436663
 + 29436665 + 29436683 + 29436684 + 29436687 + 29436700 <= 1
Limit_rule__('garrett_wilson',_'FLEX',_'NYJ'),_('garrett_wilson',_'CPT',_'NYJ'),_('allen_lazard',_'FLEX',_'NYJ'),_('allen_lazard',_'CPT',_'NYJ'),_('tyler_conklin',_'FLEX',_'NYJ'),_('tyler_conklin',_'CPT',_'NYJ'),_('randall_cobb',_'FLEX',_'NYJ'),_('randall_cobb',_'CPT',_'NYJ'),_('mecole_hardman_jr.',_'FLEX',_'NYJ'),_('mecole_hardman_jr.',_'CPT',_'NYJ'),_('c.j._uzomah',_'FLEX',_'NYJ'),_('c.j._uzomah',_'CPT',_'NYJ'),_('jeremy_ruckert',_'FLEX',_'NYJ'),_('jeremy_ruckert',_'CPT',_'NYJ'),_('xavier_gipson',_'FLEX',_'NYJ'),_('xavier_gipson',_'CPT',_'NYJ'),_('kenny_yeboah',_'FLEX',_'NYJ'),_('kenny_yeboah',_'CPT',_'NYJ'),_('irvin_charles',_'FLEX',_'NYJ'),_('irvin_charles',_'CPT',_'NYJ'),_('jason_brownlee',_'FLEX',_'NYJ'),_('jason_brownlee',_'CPT',_'NYJ'),_('zack_kuntz',_'FLEX',_'NYJ'),_('zack_kuntz',_'CPT',_'NYJ')__unless__('aaron_rodgers',_'FLEX',_'NYJ'),_('aaron_rodgers',_'CPT',_'NYJ'),_('tim_boyle',_'FLEX',_'NYJ'),_('tim_boyle',_'CPT',_'NYJ'),_('zach_wilson',_'FLEX',_'NYJ'),_('zach_wilson',_'CPT',_'NYJ')__1:
 29436613 - 29436614 + 29436619 - 29436620 - 29436621 + 29436626 + 29436632
 + 29436633 + 29436638 + 29436640 + 29436643 + 29436645 + 29436646 + 29436648
 + 29436651 + 29436661 - 29436662 + 29436667 - 29436668 - 29436669 + 29436674
 + 29436680 + 29436681 + 29436686 + 29436688 + 29436691 + 29436693 + 29436694
 + 29436696 + 29436699 <= 1
Limit_rule__('james_cook',_'FLEX',_'BUF'),_('james_cook',_'CPT',_'BUF'),_('damien_harris',_'FLEX',_'BUF'),_('damien_harris',_'CPT',_'BUF'),_('latavius_murray',_'FLEX',_'BUF'),_('latavius_murray',_'CPT',_'BUF'),_('reggie_gilliam',_'FLEX',_'BUF'),_('reggie_gilliam',_'CPT',_'BUF'),_('ty_johnson',_'FLEX',_'BUF'),_('ty_johnson',_'CPT',_'BUF')__1:
 29436616 + 29436624 + 29436637 + 29436653 + 29436654 + 29436664 + 29436672
 + 29436685 + 29436701 + 29436702 <= 1
Limit_rule__('stefon_diggs',_'FLEX',_'BUF'),_('stefon_diggs',_'CPT',_'BUF'),_('gabe_davis',_'FLEX',_'BUF'),_('gabe_davis',_'CPT',_'BUF'),_('dalton_kincaid',_'FLEX',_'BUF'),_('dalton_kincaid',_'CPT',_'BUF'),_('dawson_knox',_'FLEX',_'BUF'),_('dawson_knox',_'CPT',_'BUF'),_('deonte_harty',_'FLEX',_'BUF'),_('deonte_harty',_'CPT',_'BUF'),_('trent_sherfield',_'FLEX',_'BUF'),_('trent_sherfield',_'CPT',_'BUF'),_('quintin_morris',_'FLEX',_'BUF'),_('quintin_morris',_'CPT',_'BUF'),_('khalil_shakir',_'FLEX',_'BUF'),_('khalil_shakir',_'CPT',_'BUF'),_('bryan_thompson',_'FLEX',_'BUF'),_('bryan_thompson',_'CPT',_'BUF'),_('marcell_ateman',_'FLEX',_'BUF'),_('marcell_ateman',_'CPT',_'BUF'),_('justin_shorter',_'FLEX',_'BUF'),_('justin_shorter',_'CPT',_'BUF'),_('tyrell_shavers',_'FLEX',_'BUF'),_('tyrell_shavers',_'CPT',_'BUF'),_('joel_wilson',_'FLEX',_'BUF'),_('joel_wilson',_'CPT',_'BUF'),_('andy_isabella',_'FLEX',_'BUF'),_('andy_isabella',_'CPT',_'BUF'),_('zach_davidson',_'FLEX',_'BUF'),_('zach_davidson',_'CPT',_'BUF')__unless__('josh_allen',_'FLEX',_'BUF'),_('josh_allen',_'CPT',_'BUF'),_('kyle_allen',_'FLEX',_'BUF'),_('kyle_allen',_'CPT',_'BUF'),_('shane_buechele',_'FLEX',_'BUF'),_('shane_buechele',_'CPT',_'BUF')__1:
 - 29436611 + 29436612 + 29436618 - 29436622 - 29436623 + 29436625 + 29436627
 + 29436634 + 29436641 + 29436642 + 29436644 + 29436647 + 29436649 + 29436650
 + 29436655 + 29436656 + 29436657 + 29436658 - 29436659 + 29436660 + 29436666
 - 29436670 - 29436671 + 29436673 + 29436675 + 29436682 + 29436689 + 29436690
 + 29436692 + 29436695 + 29436697 + 29436698 + 29436703 + 29436704 + 29436705
 + 29436706 <= 1
Lineup_0: 29436615 + 29436661 + 29436662 + 29436666 + 29436667 + 29436679 <= 5
Lineup_1: 29436618 + 29436659 + 29436660 + 29436663 + 29436667 + 29436685 <= 5
Lineup_10: 29436613 + 29436662 + 29436663 + 29436666 + 29436667 + 29436702
 <= 5
Lineup_11: 29436612 + 29436659 + 29436663 + 29436666 + 29436667 + 29436702
 <= 5
Lineup_12: 29436619 + 29436661 + 29436662 + 29436663 + 29436666 + 29436677
 <= 5
Lineup_13: 29436617 + 29436661 + 29436662 + 29436666 + 29436667 + 29436676
 <= 5
Lineup_14: 29436619 + 29436661 + 29436662 + 29436663 + 29436666 + 29436676
 <= 5
Lineup_15: 29436618 + 29436661 + 29436662 + 29436663 + 29436667 + 29436678
 <= 5
Lineup_16: 29436619 + 29436661 + 29436662 + 29436663 + 29436666 + 29436678
 <= 5
Lineup_17: 29436618 + 29436661 + 29436662 + 29436663 + 29436667 + 29436679
 <= 5
Lineup_18: 29436618 + 29436659 + 29436660 + 29436665 + 29436667 + 29436702
 <= 5
Lineup_19: 29436615 + 29436660 + 29436661 + 29436667 + 29436668 + 29436677
 <= 5
Lineup_2: 29436619 + 29436661 + 29436662 + 29436665 + 29436666 + 29436676 <= 5
Lineup_20: 29436615 + 29436659 + 29436660 + 29436666 + 29436667 + 29436685
 <= 5
Lineup_21: 29436619 + 29436661 + 29436662 + 29436663 + 29436666 + 29436679
 <= 5
Lineup_22: 29436619 + 29436660 + 29436661 + 29436662 + 29436663 + 29436685
 <= 5
Lineup_23: 29436619 + 29436659 + 29436660 + 29436663 + 29436666 + 29436702
 <= 5
Lineup_24: 29436612 + 29436659 + 29436665 + 29436666 + 29436667 + 29436685
 <= 5
Lineup_25: 29436618 + 29436659 + 29436660 + 29436663 + 29436667 + 29436701
 <= 5
Lineup_26: 29436619 + 29436660 + 29436661 + 29436662 + 29436663 + 29436701
 <= 5
Lineup_27: 29436615 + 29436659 + 29436660 + 29436666 + 29436667 + 29436702
 <= 5
Lineup_28: 29436613 + 29436662 + 29436663 + 29436666 + 29436667 + 29436701
 <= 5
Lineup_29: 29436618 + 29436661 + 29436662 + 29436665 + 29436667 + 29436679
 <= 5
Lineup_3: 29436613 + 29436662 + 29436663 + 29436666 + 29436667 + 29436685 <= 5
Lineup_30: 29436613 + 29436663 + 29436666 + 29436667 + 29436668 + 29436677
 <= 5
Lineup_31: 29436615 + 29436659 + 29436660 + 29436666 + 29436667 + 29436701
 <= 5
Lineup_32: 29436619 + 29436660 + 29436661 + 29436662 + 29436663 + 29436702
 <= 5
Lineup_33: 29436617 + 29436661 + 29436662 + 29436666 + 29436667 + 29436677
 <= 5
Lineup_34: 29436619 + 29436659 + 29436660 + 29436663 + 29436666 + 29436701
 <= 5
Lineup_35: 29436615 + 29436660 + 29436666 + 29436667 + 29436670 + 29436678
 <= 5
Lineup_36: 29436615 + 29436661 + 29436662 + 29436666 + 29436667 + 29436678
 <= 5
Lineup_37: 29436617 + 29436659 + 29436660 + 29436666 + 29436667 + 29436685
 <= 5
Lineup_38: 29436615 + 29436661 + 29436662 + 29436666 + 29436667 + 29436685
 <= 5
Lineup_39: 29436617 + 29436661 + 29436662 + 29436666 + 29436667 + 29436679
 <= 5
Lineup_4: 29436619 + 29436660 + 29436661 + 29436663 + 29436668 + 29436678 <= 5
Lineup_40: 29436612 + 29436659 + 29436665 + 29436666 + 29436667 + 29436701
 <= 5
Lineup_41: 29436618 + 29436661 + 29436663 + 29436664 + 29436667 + 29436668
 <= 5
Lineup_42: 29436615 + 29436660 + 29436666 + 29436667 + 29436671 + 29436678
 <= 5
Lineup_43: 29436618 + 29436661 + 29436662 + 29436665 + 29436667 + 29436677
 <= 5
Lineup_44: 29436619 + 29436661 + 29436662 + 29436663 + 29436666 + 29436685
 <= 5
Lineup_45: 29436615 + 29436660 + 29436666 + 29436667 + 29436670 + 29436679
 <= 5
Lineup_46: 29436615 + 29436660 + 29436661 + 29436662 + 29436667 + 29436702
 <= 5
Lineup_47: 29436615 + 29436661 + 29436662 + 29436666 + 29436667 + 29436702
 <= 5
Lineup_48: 29436619 + 29436659 + 29436660 + 29436665 + 29436666 + 29436685
 <= 5
Lineup_49: 29436615 + 29436660 + 29436661 + 29436662 + 29436667 + 29436701
 <= 5
Lineup_5: 29436619 + 29436659 + 29436660 + 29436663 + 29436666 + 29436685 <= 5
Lineup_50: 29436615 + 29436661 + 29436662 + 29436666 + 29436667 + 29436701
 <= 5
Lineup_51: 29436618 + 29436661 + 29436662 + 29436663 + 29436667 + 29436685
 <= 5
Lineup_52: 29436619 + 29436661 + 29436662 + 29436663 + 29436666 + 29436702
 <= 5
Lineup_53: 29436612 + 29436659 + 29436663 + 29436666 + 29436667 + 29436701
 <= 5
Lineup_54: 29436613 + 29436663 + 29436666 + 29436667 + 29436668 + 29436678
 <= 5
Lineup_55: 29436617 + 29436661 + 29436662 + 29436666 + 29436667 + 29436678
 <= 5
Lineup_56: 29436615 + 29436661 + 29436666 + 29436667 + 29436668 + 29436678
 <= 5
Lineup_57: 29436619 + 29436660 + 29436661 + 29436662 + 29436665 + 29436685
 <= 5
Lineup_58: 29436615 + 29436660 + 29436661 + 29436667 + 29436668 + 29436678
 <= 5
Lineup_59: 29436613 + 29436662 + 29436665 + 29436666 + 29436667 + 29436685
 <= 5
Lineup_6: 29436618 + 29436659 + 29436660 + 29436663 + 29436667 + 29436702 <= 5
Lineup_60: 29436615 + 29436661 + 29436666 + 29436667 + 29436669 + 29436678
 <= 5
Lineup_61: 29436612 + 29436663 + 29436666 + 29436667 + 29436670 + 29436676
 <= 5
Lineup_62: 29436619 + 29436660 + 29436661 + 29436662 + 29436665 + 29436702
 <= 5
Lineup_63: 29436613 + 29436663 + 29436666 + 29436667 + 29436669 + 29436678
 <= 5
Lineup_64: 29436613 + 29436660 + 29436663 + 29436667 + 29436668 + 29436685
 <= 5
Lineup_65: 29436615 + 29436660 + 29436661 + 29436667 + 29436668 + 29436679
 <= 5
Lineup_66: 29436618 + 29436659 + 29436660 + 29436665 + 29436667 + 29436685
 <= 5
Lineup_67: 29436615 + 29436661 + 29436666 + 29436667 + 29436668 + 29436677
 <= 5
Lineup_68: 29436612 + 29436659 + 29436665 + 29436666 + 29436667 + 29436702
 <= 5
Lineup_69: 29436619 + 29436661 + 29436662 + 29436663 + 29436666 + 29436701
 <= 5
Lineup_7: 29436618 + 29436661 + 29436662 + 29436665 + 29436667 + 29436676 <= 5
Lineup_70: 29436612 + 29436663 + 29436666 + 29436667 + 29436671 + 29436676
 <= 5
Lineup_71: 29436618 + 29436660 + 29436663 + 29436664 + 29436667 + 29436670
 <= 5
Lineup_72: 29436619 + 29436660 + 29436661 + 29436663 + 29436668 + 29436677
 <= 5
Lineup_73: 29436617 + 29436660 + 29436661 + 29436662 + 29436667 + 29436685
 <= 5
Lineup_74: 29436612 + 29436663 + 29436666 + 29436667 + 29436670 + 29436679
 <= 5
Lineup_75: 29436612 + 29436663 + 29436666 + 29436667 + 29436670 + 29436678
 <= 5
Lineup_76: 29436612 + 29436663 + 29436666 + 29436667 + 29436671 + 29436677
 <= 5
Lineup_77: 29436617 + 29436661 + 29436662 + 29436666 + 29436667 + 29436685
 <= 5
Lineup_78: 29436619 + 29436661 + 29436662 + 29436665 + 29436666 + 29436678
 <= 5
Lineup_79: 29436619 + 29436660 + 29436663 + 29436666 + 29436670 + 29436678
 <= 5
Lineup_8: 29436618 + 29436661 + 29436662 + 29436663 + 29436667 + 29436676 <= 5
Lineup_80: 29436617 + 29436659 + 29436660 + 29436666 + 29436667 + 29436702
 <= 5
Lineup_81: 29436619 + 29436661 + 29436662 + 29436665 + 29436666 + 29436677
 <= 5
Lineup_82: 29436613 + 29436662 + 29436665 + 29436666 + 29436667 + 29436702
 <= 5
Lineup_83: 29436615 + 29436660 + 29436661 + 29436667 + 29436669 + 29436678
 <= 5
Lineup_84: 29436612 + 29436665 + 29436666 + 29436667 + 29436671 + 29436672
 <= 5
Lineup_85: 29436619 + 29436661 + 29436662 + 29436665 + 29436666 + 29436685
 <= 5
Lineup_86: 29436619 + 29436659 + 29436660 + 29436665 + 29436666 + 29436702
 <= 5
Lineup_87: 29436615 + 29436660 + 29436666 + 29436667 + 29436670 + 29436672
 <= 5
Lineup_88: 29436615 + 29436660 + 29436666 + 29436667 + 29436670 + 29436677
 <= 5
Lineup_89: 29436618 + 29436661 + 29436662 + 29436663 + 29436667 + 29436702
 <= 5
Lineup_9: 29436618 + 29436661 + 29436662 + 29436663 + 29436667 + 29436677 <= 5
Lineup_90: 29436617 + 29436661 + 29436662 + 29436666 + 29436667 + 29436702
 <= 5
Lineup_91: 29436618 + 29436661 + 29436662 + 29436665 + 29436667 + 29436685
 <= 5
Lineup_92: 29436618 + 29436661 + 29436662 + 29436665 + 29436667 + 29436678
 <= 5
Lineup_93: 29436617 + 29436659 + 29436660 + 29436666 + 29436667 + 29436701
 <= 5
Lineup_94: 29436619 + 29436661 + 29436663 + 29436666 + 29436668 + 29436676
 <= 5
Lineup_95: 29436619 + 29436659 + 29436660 + 29436665 + 29436666 + 29436701
 <= 5
Lineup_96: 29436619 + 29436661 + 29436662 + 29436665 + 29436666 + 29436679
 <= 5
Lineup_97: 29436615 + 29436660 + 29436661 + 29436667 + 29436669 + 29436677
 <= 5
Lineup_98: 29436613 + 29436663 + 29436666 + 29436667 + 29436668 + 29436679
 <= 5
Max_5_players_from_one_team_BUF: 29436611 + 29436612 + 29436616 + 29436618
 + 29436622 + 29436623 + 29436624 + 29436625 + 29436627 + 29436628 + 29436630
 + 29436634 + 29436637 + 29436641 + 29436642 + 29436644 + 29436647 + 29436649
 + 29436650 + 29436653 + 29436654 + 29436655 + 29436656 + 29436657 + 29436658
 + 29436659 + 29436660 + 29436664 + 29436666 + 29436670 + 29436671 + 29436672
 + 29436673 + 29436675 + 29436676 + 29436678 + 29436682 + 29436685 + 29436689
 + 29436690 + 29436692 + 29436695 + 29436697 + 29436698 + 29436701 + 29436702
 + 29436703 + 29436704 + 29436705 + 29436706 <= 5
Max_5_players_from_one_team_NYJ: 29436613 + 29436614 + 29436615 + 29436617
 + 29436619 + 29436620 + 29436621 + 29436626 + 29436629 + 29436631 + 29436632
 + 29436633 + 29436635 + 29436636 + 29436638 + 29436639 + 29436640 + 29436643
 + 29436645 + 29436646 + 29436648 + 29436651 + 29436652 + 29436661 + 29436662
 + 29436663 + 29436665 + 29436667 + 29436668 + 29436669 + 29436674 + 29436677
 + 29436679 + 29436680 + 29436681 + 29436683 + 29436684 + 29436686 + 29436687
 + 29436688 + 29436691 + 29436693 + 29436694 + 29436696 + 29436699 + 29436700
 <= 5
Max_Salary: 17100 29436611 + 15900 29436612 + 15600 29436613 + 14700 29436614
 + 12300 29436615 + 12000 29436616 + 11700 29436617 + 10800 29436618
 + 9600 29436619 + 9000 29436620 + 9000 29436621 + 9000 29436622
 + 9000 29436623 + 8100 29436624 + 7500 29436625 + 7200 29436626
 + 6600 29436627 + 6300 29436628 + 6000 29436629 + 5700 29436630
 + 5400 29436631 + 5100 29436632 + 4500 29436633 + 3600 29436634
 + 3000 29436635 + 1800 29436636 + 1500 29436637 + 1200 29436638
 + 300 29436639 + 300 29436640 + 300 29436641 + 300 29436642 + 300 29436643
 + 300 29436644 + 300 29436645 + 300 29436646 + 300 29436647 + 300 29436648
 + 300 29436649 + 300 29436650 + 300 29436651 + 300 29436652 + 300 29436653
 + 300 29436654 + 300 29436655 + 300 29436656 + 300 29436657 + 300 29436658
 + 11400 29436659 + 10600 29436660 + 10400 29436661 + 9800 29436662
 + 8200 29436663 + 8000 29436664 + 7800 29436665 + 7200 29436666
 + 6400 29436667 + 6000 29436668 + 6000 29436669 + 6000 29436670
 + 6000 29436671 + 5400 29436672 + 5000 29436673 + 4800 29436674
 + 4400 29436675 + 4200 29436676 + 4000 29436677 + 3800 29436678
 + 3600 29436679 + 3400 29436680 + 3000 29436681 + 2400 29436682
 + 2000 29436683 + 1200 29436684 + 1000 29436685 + 800 29436686 + 200 29436687
 + 200 29436688 + 200 29436689 + 200 29436690 + 200 29436691 + 200 29436692
 + 200 29436693 + 200 29436694 + 200 29436695 + 200 29436696 + 200 29436697
 + 200 29436698 + 200 29436699 + 200 29436700 + 200 29436701 + 200 29436702
 + 200 29436703 + 200 29436704 + 200 29436705 + 200 29436706 <= 50000
Min_Salary: 17100 29436611 + 15900 29436612 + 15600 29436613 + 14700 29436614
 + 12300 29436615 + 12000 29436616 + 11700 29436617 + 10800 29436618
 + 9600 29436619 + 9000 29436620 + 9000 29436621 + 9000 29436622
 + 9000 29436623 + 8100 29436624 + 7500 29436625 + 7200 29436626
 + 6600 29436627 + 6300 29436628 + 6000 29436629 + 5700 29436630
 + 5400 29436631 + 5100 29436632 + 4500 29436633 + 3600 29436634
 + 3000 29436635 + 1800 29436636 + 1500 29436637 + 1200 29436638
 + 300 29436639 + 300 29436640 + 300 29436641 + 300 29436642 + 300 29436643
 + 300 29436644 + 300 29436645 + 300 29436646 + 300 29436647 + 300 29436648
 + 300 29436649 + 300 29436650 + 300 29436651 + 300 29436652 + 300 29436653
 + 300 29436654 + 300 29436655 + 300 29436656 + 300 29436657 + 300 29436658
 + 11400 29436659 + 10600 29436660 + 10400 29436661 + 9800 29436662
 + 8200 29436663 + 8000 29436664 + 7800 29436665 + 7200 29436666
 + 6400 29436667 + 6000 29436668 + 6000 29436669 + 6000 29436670
 + 6000 29436671 + 5400 29436672 + 5000 29436673 + 4800 29436674
 + 4400 29436675 + 4200 29436676 + 4000 29436677 + 3800 29436678
 + 3600 29436679 + 3400 29436680 + 3000 29436681 + 2400 29436682
 + 2000 29436683 + 1200 29436684 + 1000 29436685 + 800 29436686 + 200 29436687
 + 200 29436688 + 200 29436689 + 200 29436690 + 200 29436691 + 200 29436692
 + 200 29436693 + 200 29436694 + 200 29436695 + 200 29436696 + 200 29436697
 + 200 29436698 + 200 29436699 + 200 29436700 + 200 29436701 + 200 29436702
 + 200 29436703 + 200 29436704 + 200 29436705 + 200 29436706 >= 45000
No_player_in_both_CPT_and_FLEX__('aaron_rodgers',_'FLEX',_'NYJ'),_('aaron_rodgers',_'CPT',_'NYJ')_:
 29436614 + 29436662 <= 1
No_player_in_both_CPT_and_FLEX__('allen_lazard',_'FLEX',_'NYJ'),_('allen_lazard',_'CPT',_'NYJ')_:
 29436619 + 29436667 <= 1
No_player_in_both_CPT_and_FLEX__('andy_isabella',_'FLEX',_'BUF'),_('andy_isabella',_'CPT',_'BUF')_:
 29436657 + 29436705 <= 1
No_player_in_both_CPT_and_FLEX__('bills',_'FLEX',_'BUF'),_('bills',_'CPT',_'BUF')_:
 29436630 + 29436678 <= 1
No_player_in_both_CPT_and_FLEX__('breece_hall',_'FLEX',_'NYJ'),_('breece_hall',_'CPT',_'NYJ')_:
 29436615 + 29436663 <= 1
No_player_in_both_CPT_and_FLEX__('bryan_thompson',_'FLEX',_'BUF'),_('bryan_thompson',_'CPT',_'BUF')_:
 29436642 + 29436690 <= 1
No_player_in_both_CPT_and_FLEX__('c.j._uzomah',_'FLEX',_'NYJ'),_('c.j._uzomah',_'CPT',_'NYJ')_:
 29436638 + 29436686 <= 1
No_player_in_both_CPT_and_FLEX__('dalton_kincaid',_'FLEX',_'BUF'),_('dalton_kincaid',_'CPT',_'BUF')_:
 29436625 + 29436673 <= 1
No_player_in_both_CPT_and_FLEX__('dalvin_cook',_'FLEX',_'NYJ'),_('dalvin_cook',_'CPT',_'NYJ')_:
 29436617 + 29436665 <= 1
No_player_in_both_CPT_and_FLEX__('damien_harris',_'FLEX',_'BUF'),_('damien_harris',_'CPT',_'BUF')_:
 29436624 + 29436672 <= 1
No_player_in_both_CPT_and_FLEX__('dawson_knox',_'FLEX',_'BUF'),_('dawson_knox',_'CPT',_'BUF')_:
 29436627 + 29436675 <= 1
No_player_in_both_CPT_and_FLEX__('deonte_harty',_'FLEX',_'BUF'),_('deonte_harty',_'CPT',_'BUF')_:
 29436644 + 29436692 <= 1
No_player_in_both_CPT_and_FLEX__('gabe_davis',_'FLEX',_'BUF'),_('gabe_davis',_'CPT',_'BUF')_:
 29436618 + 29436666 <= 1
No_player_in_both_CPT_and_FLEX__('garrett_wilson',_'FLEX',_'NYJ'),_('garrett_wilson',_'CPT',_'NYJ')_:
 29436613 + 29436661 <= 1
No_player_in_both_CPT_and_FLEX__('greg_zuerlein',_'FLEX',_'NYJ'),_('greg_zuerlein',_'CPT',_'NYJ')_:
 29436629 + 29436677 <= 1
No_player_in_both_CPT_and_FLEX__('irvin_charles',_'FLEX',_'NYJ'),_('irvin_charles',_'CPT',_'NYJ')_:
 29436646 + 29436694 <= 1
No_player_in_both_CPT_and_FLEX__('israel_abanikanda',_'FLEX',_'NYJ'),_('israel_abanikanda',_'CPT',_'NYJ')_:
 29436636 + 29436684 <= 1
No_player_in_both_CPT_and_FLEX__('james_cook',_'FLEX',_'BUF'),_('james_cook',_'CPT',_'BUF')_:
 29436616 + 29436664 <= 1
No_player_in_both_CPT_and_FLEX__('jason_brownlee',_'FLEX',_'NYJ'),_('jason_brownlee',_'CPT',_'NYJ')_:
 29436648 + 29436696 <= 1
No_player_in_both_CPT_and_FLEX__('jeremy_ruckert',_'FLEX',_'NYJ'),_('jeremy_ruckert',_'CPT',_'NYJ')_:
 29436640 + 29436688 <= 1
No_player_in_both_CPT_and_FLEX__('jets',_'FLEX',_'NYJ'),_('jets',_'CPT',_'NYJ')_:
 29436631 + 29436679 <= 1
No_player_in_both_CPT_and_FLEX__('joel_wilson',_'FLEX',_'BUF'),_('joel_wilson',_'CPT',_'BUF')_:
 29436656 + 29436704 <= 1
No_player_in_both_CPT_and_FLEX__('josh_allen',_'FLEX',_'BUF'),_('josh_allen',_'CPT',_'BUF')_:
 29436611 + 29436659 <= 1
No_player_in_both_CPT_and_FLEX__('justin_shorter',_'FLEX',_'BUF'),_('justin_shorter',_'CPT',_'BUF')_:
 29436649 + 29436697 <= 1
No_player_in_both_CPT_and_FLEX__('kenny_yeboah',_'FLEX',_'NYJ'),_('kenny_yeboah',_'CPT',_'NYJ')_:
 29436643 + 29436691 <= 1
No_player_in_both_CPT_and_FLEX__('khalil_shakir',_'FLEX',_'BUF'),_('khalil_shakir',_'CPT',_'BUF')_:
 29436634 + 29436682 <= 1
No_player_in_both_CPT_and_FLEX__('kyle_allen',_'FLEX',_'BUF'),_('kyle_allen',_'CPT',_'BUF')_:
 29436622 + 29436670 <= 1
No_player_in_both_CPT_and_FLEX__('latavius_murray',_'FLEX',_'BUF'),_('latavius_murray',_'CPT',_'BUF')_:
 29436637 + 29436685 <= 1
No_player_in_both_CPT_and_FLEX__('marcell_ateman',_'FLEX',_'BUF'),_('marcell_ateman',_'CPT',_'BUF')_:
 29436647 + 29436695 <= 1
No_player_in_both_CPT_and_FLEX__('mecole_hardman_jr.',_'FLEX',_'NYJ'),_('mecole_hardman_jr.',_'CPT',_'NYJ')_:
 29436633 + 29436681 <= 1
No_player_in_both_CPT_and_FLEX__('michael_carter',_'FLEX',_'NYJ'),_('michael_carter',_'CPT',_'NYJ')_:
 29436635 + 29436683 <= 1
No_player_in_both_CPT_and_FLEX__('nick_bawden',_'FLEX',_'NYJ'),_('nick_bawden',_'CPT',_'NYJ')_:
 29436652 + 29436700 <= 1
No_player_in_both_CPT_and_FLEX__('quintin_morris',_'FLEX',_'BUF'),_('quintin_morris',_'CPT',_'BUF')_:
 29436655 + 29436703 <= 1
No_player_in_both_CPT_and_FLEX__('randall_cobb',_'FLEX',_'NYJ'),_('randall_cobb',_'CPT',_'NYJ')_:
 29436632 + 29436680 <= 1
No_player_in_both_CPT_and_FLEX__('reggie_gilliam',_'FLEX',_'BUF'),_('reggie_gilliam',_'CPT',_'BUF')_:
 29436654 + 29436702 <= 1
No_player_in_both_CPT_and_FLEX__('shane_buechele',_'FLEX',_'BUF'),_('shane_buechele',_'CPT',_'BUF')_:
 29436623 + 29436671 <= 1
No_player_in_both_CPT_and_FLEX__('stefon_diggs',_'FLEX',_'BUF'),_('stefon_diggs',_'CPT',_'BUF')_:
 29436612 + 29436660 <= 1
No_player_in_both_CPT_and_FLEX__('tim_boyle',_'FLEX',_'NYJ'),_('tim_boyle',_'CPT',_'NYJ')_:
 29436620 + 29436668 <= 1
No_player_in_both_CPT_and_FLEX__('trent_sherfield',_'FLEX',_'BUF'),_('trent_sherfield',_'CPT',_'BUF')_:
 29436641 + 29436689 <= 1
No_player_in_both_CPT_and_FLEX__('ty_johnson',_'FLEX',_'BUF'),_('ty_johnson',_'CPT',_'BUF')_:
 29436653 + 29436701 <= 1
No_player_in_both_CPT_and_FLEX__('tyler_bass',_'FLEX',_'BUF'),_('tyler_bass',_'CPT',_'BUF')_:
 29436628 + 29436676 <= 1
No_player_in_both_CPT_and_FLEX__('tyler_conklin',_'FLEX',_'NYJ'),_('tyler_conklin',_'CPT',_'NYJ')_:
 29436626 + 29436674 <= 1
No_player_in_both_CPT_and_FLEX__('tyrell_shavers',_'FLEX',_'BUF'),_('tyrell_shavers',_'CPT',_'BUF')_:
 29436650 + 29436698 <= 1
No_player_in_both_CPT_and_FLEX__('xavier_gipson',_'FLEX',_'NYJ'),_('xavier_gipson',_'CPT',_'NYJ')_:
 29436645 + 29436693 <= 1
No_player_in_both_CPT_and_FLEX__('xazavian_valladay',_'FLEX',_'NYJ'),_('xazavian_valladay',_'CPT',_'NYJ')_:
 29436639 + 29436687 <= 1
No_player_in_both_CPT_and_FLEX__('zach_davidson',_'FLEX',_'BUF'),_('zach_davidson',_'CPT',_'BUF')_:
 29436658 + 29436706 <= 1
No_player_in_both_CPT_and_FLEX__('zach_wilson',_'FLEX',_'NYJ'),_('zach_wilson',_'CPT',_'NYJ')_:
 29436621 + 29436669 <= 1
No_player_in_both_CPT_and_FLEX__('zack_kuntz',_'FLEX',_'NYJ'),_('zack_kuntz',_'CPT',_'NYJ')_:
 29436651 + 29436699 <= 1
Stack_rule_('aaron_rodgers',_'CPT',_'NYJ')__('garrett_wilson',_'FLEX',_'NYJ'),_('allen_lazard',_'FLEX',_'NYJ'),_('tyler_conklin',_'FLEX',_'NYJ'),_('randall_cobb',_'FLEX',_'NYJ'),_('mecole_hardman_jr.',_'FLEX',_'NYJ'),_('c.j._uzomah',_'FLEX',_'NYJ'),_('jeremy_ruckert',_'FLEX',_'NYJ'),_('xavier_gipson',_'FLEX',_'NYJ'),_('kenny_yeboah',_'FLEX',_'NYJ'),_('irvin_charles',_'FLEX',_'NYJ'),_('jason_brownlee',_'FLEX',_'NYJ'),_('zack_kuntz',_'FLEX',_'NYJ')__2:
 - 2 29436614 + 29436661 + 29436667 + 29436674 + 29436680 + 29436681
 + 29436686 + 29436688 + 29436691 + 29436693 + 29436694 + 29436696 + 29436699
 >= 0
Stack_rule_('dalton_kincaid',_'CPT',_'BUF')__('josh_allen',_'FLEX',_'BUF'),_('kyle_allen',_'FLEX',_'BUF'),_('shane_buechele',_'FLEX',_'BUF')__1:
 - 29436625 + 29436659 + 29436670 + 29436671 >= 0
Stack_rule_('garrett_wilson',_'CPT',_'NYJ')__('aaron_rodgers',_'FLEX',_'NYJ'),_('tim_boyle',_'FLEX',_'NYJ'),_('zach_wilson',_'FLEX',_'NYJ')__1:
 - 29436613 + 29436662 + 29436668 + 29436669 >= 0
Stack_rule_('josh_allen',_'CPT',_'BUF')__('stefon_diggs',_'FLEX',_'BUF'),_('gabe_davis',_'FLEX',_'BUF'),_('dalton_kincaid',_'FLEX',_'BUF'),_('dawson_knox',_'FLEX',_'BUF'),_('deonte_harty',_'FLEX',_'BUF'),_('trent_sherfield',_'FLEX',_'BUF'),_('quintin_morris',_'FLEX',_'BUF'),_('khalil_shakir',_'FLEX',_'BUF'),_('bryan_thompson',_'FLEX',_'BUF'),_('marcell_ateman',_'FLEX',_'BUF'),_('justin_shorter',_'FLEX',_'BUF'),_('tyrell_shavers',_'FLEX',_'BUF'),_('joel_wilson',_'FLEX',_'BUF'),_('andy_isabella',_'FLEX',_'BUF'),_('zach_davidson',_'FLEX',_'BUF')__2:
 - 2 29436611 + 29436660 + 29436666 + 29436673 + 29436675 + 29436682
 + 29436689 + 29436690 + 29436692 + 29436695 + 29436697 + 29436698 + 29436703
 + 29436704 + 29436705 + 29436706 >= 0
Stack_rule_('stefon_diggs',_'CPT',_'BUF')__('josh_allen',_'FLEX',_'BUF'),_('kyle_allen',_'FLEX',_'BUF'),_('shane_buechele',_'FLEX',_'BUF')__1:
 - 29436612 + 29436659 + 29436670 + 29436671 >= 0
Stack_rule_('tyler_conklin',_'CPT',_'NYJ')__('aaron_rodgers',_'FLEX',_'NYJ'),_('tim_boyle',_'FLEX',_'NYJ'),_('zach_wilson',_'FLEX',_'NYJ')__1:
 - 29436626 + 29436662 + 29436668 + 29436669 >= 0
Binaries
29436611
29436612
29436613
29436614
29436615
29436616
29436617
29436618
29436619
29436620
29436621
29436622
29436623
29436624
29436625
29436626
29436627
29436628
29436629
29436630
29436631
29436632
29436633
29436634
29436635
29436636
29436637
29436638
29436639
29436640
29436641
29436642
29436643
29436644
29436645
29436646
29436647
29436648
29436649
29436650
29436651
29436652
29436653
29436654
29436655
29436656
29436657
29436658
29436659
29436660
29436661
29436662
29436663
29436664
29436665
29436666
29436667
29436668
29436669
29436670
29436671
29436672
29436673
29436674
29436675
29436676
29436677
29436678
29436679
29436680
29436681
29436682
29436683
29436684
29436685
29436686
29436687
29436688
29436689
29436690
29436691
29436692
29436693
29436694
29436695
29436696
29436697
29436698
29436699
29436700
29436701
29436702
29436703
29436704
29436705
29436706
End
